p cnf 77 252
-5 -3 0
-5 -4 0
3 4 5 0
6 -2 0
6 5 0
2 -5 -6 0
-8 -6 0
-8 7 0
6 -7 8 0
-10 -8 0
-10 9 0
8 -9 10 0
11 -1 0
11 -10 0
1 10 -11 0
13 12 0
13 5 0
-12 -5 -13 0
-14 -3 -15 0
14 3 -15 0
-14 3 15 0
14 -3 15 0
-16 -15 0
-16 14 0
15 -14 16 0
17 -16 0
17 12 0
16 -12 -17 0
18 15 0
18 -17 0
-15 17 -18 0
20 5 0
20 -19 0
-5 19 -20 0
-20 -15 -21 0
20 15 -21 0
-20 15 21 0
20 -15 21 0
-18 21 -22 0
18 -21 -22 0
-18 -21 22 0
18 21 22 0
-13 22 -23 0
13 -22 -23 0
-13 -22 23 0
13 22 23 0
11 23 -24 0
-11 -23 -24 0
11 -23 24 0
-11 23 24 0
25 -6 -26 0
-25 6 -26 0
25 6 26 0
-25 -6 26 0
-27 24 0
-27 26 0
-24 -26 27 0
-4 -2 -28 0
4 2 -28 0
-4 2 28 0
4 -2 28 0
30 -28 0
30 -29 0
28 29 -30 0
4 31 0
-4 31 0
32 -31 0
32 19 0
31 -19 -32 0
-33 9 0
-33 -32 0
-9 32 33 0
20 -34 0
-20 -34 0
-36 35 0
-36 17 0
-35 -17 36 0
37 -34 0
37 36 0
34 -36 -37 0
-33 37 -38 0
33 -37 -38 0
-33 -37 38 0
33 37 38 0
-39 30 0
-39 -38 0
-30 38 39 0
-40 5 0
-40 14 0
-5 -14 40 0
-40 -6 -41 0
40 6 -41 0
-40 6 41 0
40 -6 41 0
-39 41 -42 0
39 -41 -42 0
-39 -41 42 0
39 41 42 0
-28 -12 -43 0
28 12 -43 0
-28 12 43 0
28 -12 43 0
-5 -43 -44 0
5 43 -44 0
-5 43 44 0
5 -43 44 0
17 -43 -45 0
-17 43 -45 0
17 43 45 0
-17 -43 45 0
46 29 0
46 -1 0
-29 1 -46 0
47 -45 0
47 46 0
45 -46 -47 0
-48 7 0
-48 -35 0
-7 35 48 0
48 -49 -50 0
-48 49 -50 0
48 49 50 0
-48 -49 50 0
51 3 -52 0
-51 -3 -52 0
51 -3 52 0
-51 3 52 0
-53 51 0
-53 28 0
-51 -28 53 0
54 -53 0
54 -52 0
53 52 -54 0
-55 -52 0
-55 54 0
52 -54 55 0
4 35 -56 0
-4 -35 -56 0
4 -35 56 0
-4 35 56 0
-57 -55 0
-57 56 0
55 -56 57 0
19 51 -58 0
-19 -51 -58 0
19 -51 58 0
-19 51 58 0
-59 -17 0
-59 58 0
17 -58 59 0
-60 -57 0
-60 59 0
57 -59 60 0
50 -60 -61 0
-50 60 -61 0
50 60 61 0
-50 -60 61 0
-62 -47 0
-62 -61 0
47 61 62 0
-63 44 0
-63 62 0
-44 -62 63 0
-64 -4 0
-64 -43 0
4 43 64 0
65 -63 0
65 64 0
63 -64 -65 0
66 -28 0
66 3 0
28 -3 -66 0
-67 12 0
-67 -14 0
-12 14 67 0
-68 -66 0
-68 -67 0
66 67 68 0
-12 -51 -69 0
12 51 -69 0
-12 51 69 0
12 -51 69 0
70 -29 0
70 69 0
29 -69 -70 0
-71 -5 0
-71 -7 0
5 7 71 0
-72 -71 0
-72 15 0
71 -15 72 0
-73 70 0
-73 -72 0
-70 72 73 0
-68 73 -74 0
68 -73 -74 0
-68 -73 74 0
68 73 74 0
65 74 -75 0
-65 -74 -75 0
65 -74 75 0
-65 74 75 0
42 -75 -76 0
-42 75 -76 0
42 75 76 0
-42 -75 76 0
-77 27 0
-77 76 0
-27 -76 77 0
-34 -57 47 25 -5 0
21 -23 -12 0
-36 -23 9 1 18 -16 0
45 5 0
56 -11 77 34 65 0
-63 73 -18 -31 60 0
6 -5 -74 10 20 0
-22 5 -50 -20 0
-19 -12 46 0
-21 74 -73 -43 -45 12 0
6 4 -73 -49 -24 0
-26 -21 31 -42 -7 0
74 -37 20 71 0
7 40 -20 -11 -42 0
-44 45 -16 -73 68 -46 0
-11 -35 0
-45 68 20 0
55 69 -18 0
65 -40 -9 0
-56 -53 57 27 39 26 0
-3 -14 -77 -76 0
-31 13 -41 -43 28 0
-5 33 39 0
-33 17 77 -2 -63 -66 0
-11 -42 71 -47 43 0
45 65 77 75 63 68 0
53 60 3 -13 0
-55 -57 -37 -45 3 0
74 77 30 7 0
17 2 1 66 -48 -23 0
71 -53 2 7 44 0
-49 29 -12 -54 -2 -41 0
-7 -69 -6 38 -65 0
-40 17 18 0
75 27 64 76 -48 -37 0
58 -34 0
70 -34 30 0
-53 -26 5 -15 -48 -33 0
-39 65 66 16 0
35 -38 -47 -1 0
-74 -25 -51 48 -9 0
35 49 -62 21 0
77 0
